
Gurobi 6.0.4 (win64) logging started 06/18/15 17:42:03

Read LP format model from file E:\Eigene Dateien\Downloads\Michi shit\VRPTWMS2\instances\mip\fuel\N8-C_DV100-C_SV25_F5_4_No_1.lp
Reading time = 0.02 seconds
(null): 417 rows, 200 columns, 1659 nonzeros
Optimize a model with 417 rows, 200 columns and 1659 nonzeros
Model has 512 quadratic constraints
Coefficient statistics:
  Matrix range    [1e+00, 1e+06]
  Objective range [4e+04, 1e+07]
  Bounds range    [1e+00, 1e+06]
  RHS range       [1e+00, 1e+06]
Presolve removed 49 rows and 30 columns
Presolve time: 0.03s
Presolved: 1132 rows, 552 columns, 5945 nonzeros
Variable types: 382 continuous, 170 integer (136 binary)
Found heuristic solution: objective 8.296440e+07

Root relaxation: objective 5.275886e+06, 81 iterations, 0.00 seconds

    Nodes    |    Current Node    |     Objective Bounds      |     Work
 Expl Unexpl |  Obj  Depth IntInf | Incumbent    BestBd   Gap | It/Node Time

     0     0 5275886.06    0   29 8.2964e+07 5275886.06  93.6%     -    0s
H    0     0                    3.191860e+07 5275886.06  83.5%     -    0s
     0     0 1.1623e+07    0   25 3.1919e+07 1.1623e+07  63.6%     -    0s
     0     0 1.1705e+07    0   31 3.1919e+07 1.1705e+07  63.3%     -    0s
     0     0 1.1709e+07    0   32 3.1919e+07 1.1709e+07  63.3%     -    0s
     0     0 1.1709e+07    0   34 3.1919e+07 1.1709e+07  63.3%     -    0s
H    0     0                    3.190570e+07 1.1709e+07  63.3%     -    0s
     0     0 1.1709e+07    0   34 3.1906e+07 1.1709e+07  63.3%     -    0s
     0     2 1.1709e+07    0   34 3.1906e+07 1.1709e+07  63.3%     -    0s

Cutting planes:
  Learned: 3
  Gomory: 2
  Cover: 19
  Implied bound: 23
  Clique: 3
  MIR: 8
  GUB cover: 5

Explored 155 nodes (1922 simplex iterations) in 0.13 seconds
Thread count was 4 (of 4 available processors)

Optimal solution found (tolerance 1.00e-04)
Best objective 3.190570000000e+07, best bound 3.190570000000e+07, gap 0.0%
k_c1	980000.0
k_c2	40001.0
k_c3	20001.0
k_c4	70002.0
k_c5	999999.0
k_c6	999999.0
k_c7	1000000.0
k_c8	50001.0
k_dN	-0.0
o_1	-0.0
o_2	-0.0
o_3	-0.0
o_4	-0.0
o_5	-0.0
o_6	-0.0
o_7	-0.0
o_8	-0.0
p_1	-0.0
p_2	-0.0
p_3	-0.0
p_4	-0.0
p_5	-0.0
p_6	-0.0
p_7	-0.0
p_8	-0.0
phi_c1	28873.0
phi_c2	2990.0
phi_c3	5714.0
phi_c4	12357.0
phi_c5	28872.0
phi_c6	35883.0
phi_c7	36352.0
phi_c8	10450.0
phi_d0	50000.0
phi_dN	-0.0
tauD_c1	599999.0
tauD_c2	799999.0
tauD_c3	849999.0
tauD_c4	650000.0
tauD_c5	758248.0
tauD_c6	582174.0
tauD_c7	250000.0
tauD_c8	849999.0
tauD_d0	-0.0
tauD_dN	1000000.0
tauS_c1	844950.0
tauS_c2	908825.0
tauS_c3	898650.0
tauS_c4	878775.0
tauS_c5	841050.0
tauS_c6	867250.0
tauS_c7	869000.0
tauS_c8	880950.0
tauS_d0	-0.0
tauS_dN	1000000.0
x_c1_c8	1.0
x_c2_dN	1.0
x_c3_dN	1.0
x_c4_c2	1.0
x_c5_c3	1.0
x_c6_c4	1.0
x_c7_c1	1.0
x_c8_dN	1.0
x_d0_c5	1.0
x_d0_c6	1.0
x_d0_c7	1.0
